Maximize
  - 39 x0 - 45 x1 + 0 x2 + 0 x3 + 0 x4 + 0 x5 + 0 x6 + 0 x7 - 45 x8 - 34 x9
   - 18 x10 + 20 x11 + 0 x12 + 0 x13 + 0 x14 - 42 x15 + 0 x16 + 0 x17
   + 0 x18 + 0 x19 + 27 x20 + 8 x21 - 37 x22 + 47 x23 + 15 x24 + 0 x25
   + 32 x26 + 0 x27 + 23 x28 + 47 x29 - 25 x30 - 40 x31 + 0 x32 - 6 x33
   - 6 x34 + 0 x35 - 5 x36 - 40 x37 + 37 x38 + 0 x39 - 14 x40 + 17 x41
   - 7 x42 - 44 x43 + 0 x44 - 44 x45 - 47 x46 + 0 x47 + 25 x48 + 24 x49 + [
   26 x0 ^2 - 72 x0 * x1 + 80 x0 * x2 + 6 x0 * x4 - 36 x0 * x10
   - 82 x0 * x12 - 62 x0 * x16 + 22 x0 * x17 - 12 x0 * x19 + 26 x0 * x20
   + 4 x0 * x22 + 12 x0 * x24 - 32 x0 * x26 - 72 x0 * x31 + 26 x0 * x35
   - 26 x0 * x36 - 82 x0 * x38 - 94 x0 * x40 - 42 x0 * x41 + 64 x0 * x42
   - 42 x0 * x44 - 24 x0 * x45 + 72 x0 * x46 - 48 x0 * x48 - 84 x1 * x7
   + 2 x1 * x9 - 30 x1 * x10 - 46 x1 * x11 - 8 x1 * x14 - 60 x1 * x16
   - 12 x1 * x17 - 58 x1 * x18 + 62 x1 * x22 - 74 x1 * x23 - 20 x1 * x24
   - 92 x1 * x27 - 48 x1 * x28 - 84 x1 * x31 - 46 x1 * x32 + 14 x1 * x35
   - 58 x1 * x40 - 56 x1 * x41 - 6 x1 * x43 - 6 x1 * x44 - 24 x2 * x3
   - 70 x2 * x5 + 70 x2 * x6 - 16 x2 * x9 + 80 x2 * x12 - 98 x2 * x13
   - 8 x2 * x14 - 94 x2 * x16 - 22 x2 * x17 + 14 x2 * x19 - 54 x2 * x20
   - 4 x2 * x21 + 6 x2 * x23 - 18 x2 * x24 + 92 x2 * x28 - 52 x2 * x29
   + 30 x2 * x31 + 2 x2 * x34 - 82 x2 * x38 - 62 x2 * x40 + 86 x2 * x41
   + 40 x2 * x45 - 96 x2 * x46 - 16 x2 * x47 - 4 x2 * x49 + 14 x3 ^2
   - 36 x3 * x4 + 54 x3 * x5 - 96 x3 * x6 + 92 x3 * x8 + 46 x3 * x13
   + 84 x3 * x20 + 82 x3 * x21 - 84 x3 * x23 + 80 x3 * x28 + 94 x3 * x29
   - 50 x3 * x30 + 6 x3 * x32 + 28 x3 * x33 - 10 x3 * x36 + 82 x3 * x40
   + 78 x3 * x41 - 94 x3 * x45 - 64 x3 * x47 + 14 x3 * x48 + 10 x4 ^2
   - 32 x4 * x6 + 6 x4 * x9 - 20 x4 * x10 + 82 x4 * x12 - 92 x4 * x19
   - 34 x4 * x22 + 76 x4 * x24 + 10 x4 * x28 + 16 x4 * x29 - 78 x4 * x30
   - 10 x4 * x32 - 84 x4 * x34 + 76 x4 * x35 + 28 x4 * x42 - 28 x4 * x43
   - 72 x4 * x46 - 20 x4 * x48 + 92 x4 * x49 + 50 x5 * x6 - 96 x5 * x7
   - 90 x5 * x13 - 76 x5 * x14 - 56 x5 * x16 - 82 x5 * x17 + 16 x5 * x21
   + 76 x5 * x22 + 50 x5 * x30 + 14 x5 * x35 - 30 x5 * x36 - 26 x5 * x37
   - 56 x5 * x41 + 64 x5 * x42 + 92 x5 * x44 + 72 x5 * x45 + 60 x5 * x46
   - 72 x6 * x7 - 10 x6 * x10 - 6 x6 * x11 + 54 x6 * x12 - 90 x6 * x13
   + 98 x6 * x14 + 70 x6 * x17 + 40 x6 * x20 + 42 x6 * x22 - 60 x6 * x23
   + 6 x6 * x25 + 14 x6 * x26 - 92 x6 * x29 + 8 x6 * x30 - 74 x6 * x31
   + 94 x6 * x37 + 98 x6 * x38 - 32 x6 * x39 - 50 x6 * x40 - 14 x6 * x42
   + 50 x6 * x45 - 46 x6 * x48 - 90 x6 * x49 + 76 x7 * x8 + 30 x7 * x12
   - 68 x7 * x15 - 44 x7 * x16 - 36 x7 * x17 - 10 x7 * x18 + 62 x7 * x19
   + 96 x7 * x21 + 14 x7 * x22 - 26 x7 * x23 - 18 x7 * x25 - 2 x7 * x26
   + 56 x7 * x29 + 18 x7 * x30 + 42 x7 * x31 + 72 x7 * x33 - 42 x7 * x35
   + 18 x7 * x37 + 8 x7 * x40 + 96 x7 * x41 - 22 x7 * x42 - 28 x7 * x44
   - 4 x7 * x45 + 42 x7 * x46 + 64 x7 * x48 - 88 x7 * x49 + 60 x8 * x13
   + 6 x8 * x14 + 80 x8 * x19 - 28 x8 * x21 + 16 x8 * x23 - 84 x8 * x25
   + 20 x8 * x30 - 8 x8 * x32 + 2 x8 * x34 - 94 x8 * x38 + 58 x8 * x41
   - 50 x8 * x43 + 74 x8 * x46 - 8 x8 * x48 - 40 x8 * x49 + 5 x9 ^2
   + 52 x9 * x10 - 44 x9 * x11 - 98 x9 * x13 + 52 x9 * x14 - 46 x9 * x15
   + 20 x9 * x17 + 6 x9 * x18 - 6 x9 * x20 - 98 x9 * x21 + 90 x9 * x22
   + 86 x9 * x24 - 2 x9 * x25 - 22 x9 * x26 + 94 x9 * x30 + 32 x9 * x31
   + 42 x9 * x33 + 14 x9 * x34 - 14 x9 * x36 + 12 x9 * x37 + 4 x9 * x39
   + 48 x9 * x40 - 70 x9 * x42 + 56 x9 * x43 + 72 x9 * x44 + 70 x9 * x45
   + 32 x9 * x49 + x10 ^2 - 30 x10 * x12 + 50 x10 * x15 - 78 x10 * x17
   + 14 x10 * x18 + 88 x10 * x20 + 70 x10 * x21 - 46 x10 * x23
   + 10 x10 * x24 + 34 x10 * x25 + 10 x10 * x29 + 56 x10 * x30
   - 70 x10 * x31 + 26 x10 * x33 - 88 x10 * x36 - 62 x10 * x38
   + 72 x10 * x41 - 66 x10 * x46 + 72 x10 * x47 - 80 x10 * x48 + 10 x11 ^2
   + 80 x11 * x12 - 60 x11 * x13 - 68 x11 * x14 + 62 x11 * x15
   - 36 x11 * x16 - 18 x11 * x18 + 70 x11 * x19 + 32 x11 * x20
   - 88 x11 * x21 - 2 x11 * x22 + 8 x11 * x26 + 70 x11 * x28 + 88 x11 * x37
   + 44 x11 * x38 + 38 x11 * x40 + 32 x11 * x42 + 96 x11 * x43
   + 86 x11 * x45 + 38 x11 * x47 + 70 x12 * x13 + 22 x12 * x14
   - 2 x12 * x15 - 26 x12 * x16 - 92 x12 * x17 + 76 x12 * x18
   + 16 x12 * x19 + 4 x12 * x21 + 88 x12 * x22 - 20 x12 * x25
   - 86 x12 * x26 - 56 x12 * x27 - 50 x12 * x28 - 70 x12 * x29
   + 16 x12 * x33 + 42 x12 * x40 + 76 x12 * x41 - 48 x12 * x44
   + 18 x12 * x45 + 74 x12 * x47 - 18 x12 * x48 - 26 x12 * x49
   + 94 x13 * x14 + 56 x13 * x15 + 64 x13 * x18 - 80 x13 * x21
   + 74 x13 * x22 + 88 x13 * x23 - 92 x13 * x26 - 12 x13 * x27
   - 66 x13 * x30 + 14 x13 * x31 - 66 x13 * x32 - 64 x13 * x34
   - 4 x13 * x35 + 60 x13 * x37 - 12 x13 * x38 + 52 x13 * x39
   - 24 x13 * x40 + 54 x13 * x41 - 16 x13 * x45 - 62 x13 * x46
   - 24 x13 * x49 - 47 x14 ^2 + 20 x14 * x15 + 14 x14 * x18 + 96 x14 * x20
   + 56 x14 * x21 + 96 x14 * x22 - 68 x14 * x23 - 98 x14 * x24
   - 76 x14 * x25 - 70 x14 * x29 + 94 x14 * x30 - 74 x14 * x34
   + 14 x14 * x35 + 4 x14 * x37 + 84 x14 * x38 - 16 x14 * x39
   + 26 x14 * x40 - 22 x14 * x41 + 44 x14 * x44 + 6 x14 * x47
   - 76 x14 * x48 - 96 x15 * x20 + 76 x15 * x21 - 68 x15 * x23
   - 28 x15 * x24 - 70 x15 * x25 + 8 x15 * x32 + 56 x15 * x34
   - 94 x15 * x37 - 46 x15 * x39 + 36 x15 * x46 - 28 x16 * x22
   - 50 x16 * x26 + 26 x16 * x28 + 82 x16 * x29 + 8 x16 * x33
   - 12 x16 * x36 + 98 x16 * x37 - 70 x16 * x39 + 78 x16 * x40
   + 52 x16 * x41 - 96 x16 * x42 + 32 x16 * x43 - 66 x16 * x44
   + 82 x16 * x45 - 28 x16 * x46 - 84 x16 * x48 - 39 x17 ^2 + 2 x17 * x19
   + 68 x17 * x27 - 24 x17 * x29 - 70 x17 * x30 - 22 x17 * x32
   - 66 x17 * x34 + 6 x17 * x35 - 18 x17 * x36 + 60 x17 * x37
   - 88 x17 * x38 - 20 x17 * x40 + 44 x17 * x41 + 18 x17 * x42
   - 98 x17 * x44 - 98 x17 * x46 - 7 x18 ^2 - 62 x18 * x20 + 62 x18 * x21
   - 88 x18 * x22 + 76 x18 * x24 + 82 x18 * x25 + 50 x18 * x28
   - 28 x18 * x30 - 62 x18 * x32 + 48 x18 * x35 + 92 x18 * x36
   - 68 x18 * x37 + 70 x18 * x39 - 16 x18 * x41 - 58 x18 * x42
   - 94 x18 * x43 + 96 x18 * x44 + 76 x18 * x46 + 54 x18 * x49 + 33 x19 ^2
   - 46 x19 * x20 - 82 x19 * x21 - 82 x19 * x24 + 96 x19 * x29
   - 62 x19 * x30 + 16 x19 * x31 - 92 x19 * x33 + 68 x19 * x34
   + 32 x19 * x36 + 16 x19 * x42 + 50 x19 * x43 + 18 x19 * x44
   + 8 x19 * x45 - 76 x19 * x47 + 40 x19 * x48 + 8 x20 ^2 + 70 x20 * x21
   + 26 x20 * x23 + 28 x20 * x26 + 24 x20 * x28 + 16 x20 * x32
   - 28 x20 * x33 - 92 x20 * x35 - 96 x20 * x36 + 24 x20 * x37
   - 60 x20 * x38 + 78 x20 * x40 - 74 x20 * x41 + 44 x20 * x45
   - 28 x20 * x48 - 10 x20 * x49 - 7 x21 ^2 + 56 x21 * x22 - 26 x21 * x24
   - 2 x21 * x27 - 16 x21 * x30 - 40 x21 * x31 - 40 x21 * x33
   - 26 x21 * x35 - 14 x21 * x37 + 2 x21 * x38 + 76 x21 * x39
   + 94 x21 * x41 + 16 x21 * x43 + 32 x21 * x44 + 92 x21 * x45
   + 4 x21 * x46 + 78 x21 * x47 - 98 x21 * x48 + 6 x22 ^2 + 6 x22 * x23
   + 2 x22 * x26 - 86 x22 * x27 - 94 x22 * x28 - 78 x22 * x29
   - 40 x22 * x33 + 4 x22 * x34 - 54 x22 * x35 - 72 x22 * x36
   - 28 x22 * x39 - 14 x22 * x40 - 2 x22 * x42 + 68 x22 * x43
   - 38 x22 * x44 + 22 x22 * x47 + 40 x23 ^2 - 4 x23 * x27 - 98 x23 * x38
   + 94 x23 * x39 - 86 x23 * x41 - 46 x23 * x42 + 74 x23 * x46
   - 76 x23 * x47 + 54 x23 * x48 + 44 x24 ^2 - 98 x24 * x25 + 54 x24 * x28
   + 16 x24 * x30 - 80 x24 * x33 + 46 x24 * x34 + 32 x24 * x36
   + 32 x24 * x41 + 46 x24 * x43 - 22 x24 * x44 - 16 x24 * x46
   + 52 x24 * x47 + 78 x24 * x48 - 58 x25 * x26 + 56 x25 * x28
   - 44 x25 * x29 + 72 x25 * x30 + 96 x25 * x31 - 12 x25 * x34
   - 24 x25 * x36 + 64 x25 * x42 - 26 x25 * x43 - 58 x25 * x44
   + 90 x25 * x45 + 14 x25 * x46 - 44 x25 * x47 - 40 x25 * x48
   - 52 x25 * x49 + 14 x26 * x27 - 94 x26 * x31 - 26 x26 * x32
   - 64 x26 * x34 - 10 x26 * x36 - 98 x26 * x37 + 14 x26 * x38
   + 16 x26 * x39 - 22 x26 * x40 - 98 x26 * x43 - 62 x26 * x44
   + 52 x26 * x47 - 50 x26 * x48 - 98 x26 * x49 + 28 x27 * x28
   + 46 x27 * x30 + 6 x27 * x31 + 64 x27 * x34 + 24 x27 * x35
   - 68 x27 * x36 + 96 x27 * x38 - 32 x27 * x39 + 56 x27 * x40
   - 42 x27 * x41 - 52 x27 * x42 - 88 x27 * x46 - 84 x27 * x49 + 36 x28 ^2
   + 58 x28 * x29 + 56 x28 * x31 - 22 x28 * x32 - 18 x28 * x40
   - 20 x28 * x41 - 72 x28 * x42 + 22 x28 * x43 - 30 x28 * x44
   - 34 x28 * x47 - 31 x29 ^2 + 74 x29 * x31 - 10 x29 * x37 - 72 x29 * x39
   - 16 x29 * x40 - 86 x29 * x41 - 26 x29 * x44 + 76 x29 * x46
   + 26 x29 * x48 + 32 x30 ^2 - 46 x30 * x32 + 32 x30 * x34 - 4 x30 * x35
   + 28 x30 * x36 - 34 x30 * x43 + 12 x30 * x45 - 20 x30 * x46
   + 82 x31 * x32 + 2 x31 * x34 - 94 x31 * x35 + 24 x31 * x38
   + 68 x31 * x43 - 16 x31 * x46 - 88 x31 * x48 - 32 x32 ^2 + 16 x32 * x33
   - 52 x32 * x34 - 42 x32 * x36 - 82 x32 * x37 + 50 x32 * x40
   + 60 x32 * x41 - 14 x32 * x42 + 50 x32 * x43 - 44 x32 * x44
   - 32 x32 * x45 - 10 x32 * x46 - 44 x32 * x47 + 24 x33 * x34
   - 6 x33 * x35 - 26 x33 * x36 + 28 x33 * x41 - 32 x33 * x43
   - 86 x33 * x46 + 70 x34 * x36 + 68 x34 * x37 + 46 x34 * x39
   - 32 x34 * x41 - 90 x34 * x42 + 42 x34 * x45 + 28 x34 * x47
   + 50 x34 * x48 + 48 x34 * x49 - 3 x35 ^2 + 36 x35 * x38 + 58 x35 * x40
   + 46 x35 * x46 - 34 x35 * x48 - 26 x35 * x49 - 8 x36 * x37
   + 76 x36 * x38 - 72 x36 * x40 - 8 x36 * x41 + 82 x36 * x43
   + 28 x36 * x44 - 96 x36 * x47 + 10 x36 * x48 + 48 x36 * x49
   - 10 x37 * x40 - 48 x37 * x41 - 98 x37 * x43 + 34 x37 * x45
   - 90 x37 * x47 + 42 x37 * x48 - 15 x38 ^2 - 8 x38 * x41 + 36 x38 * x45
   - 34 x38 * x48 + 70 x38 * x49 - 62 x39 * x42 - 36 x39 * x46 - 20 x40 ^2
   - 72 x40 * x42 - 40 x40 * x44 - 34 x40 * x49 + 46 x41 ^2 - 10 x41 * x43
   - 16 x41 * x45 + 8 x41 * x46 - 22 x41 * x48 + 66 x41 * x49
   + 66 x42 * x45 - 12 x42 * x48 + 44 x42 * x49 + 32 x43 ^2 + 78 x43 * x44
   - 18 x44 ^2 + 44 x44 * x45 + 54 x44 * x48 + 86 x44 * x49 - 48 x45 ^2
   + 46 x45 * x46 - 56 x45 * x47 + 32 x46 * x48 + 13 x47 ^2 + 8 x47 * x48
   + 44 x48 ^2 ] / 2 
Subject To
Bounds
 x0 <= 1
 x1 <= 1
 x2 <= 1
 x3 <= 1
 x4 <= 1
 x5 <= 1
 x6 <= 1
 x7 <= 1
 x8 <= 1
 x9 <= 1
 x10 <= 1
 x11 <= 1
 x12 <= 1
 x13 <= 1
 x14 <= 1
 x15 <= 1
 x16 <= 1
 x17 <= 1
 x18 <= 1
 x19 <= 1
 x20 <= 1
 x21 <= 1
 x22 <= 1
 x23 <= 1
 x24 <= 1
 x25 <= 1
 x26 <= 1
 x27 <= 1
 x28 <= 1
 x29 <= 1
 x30 <= 1
 x31 <= 1
 x32 <= 1
 x33 <= 1
 x34 <= 1
 x35 <= 1
 x36 <= 1
 x37 <= 1
 x38 <= 1
 x39 <= 1
 x40 <= 1
 x41 <= 1
 x42 <= 1
 x43 <= 1
 x44 <= 1
 x45 <= 1
 x46 <= 1
 x47 <= 1
 x48 <= 1
 x49 <= 1
End
